p wcnf 8 29 153
153 1 2 0
153 1 3 0
153 1 5 0
153 1 6 0
153 1 8 0
153 2 3 0
153 2 4 0
153 2 5 0
153 2 6 0
153 2 7 0
153 2 8 0
153 3 4 0
153 3 5 0
153 3 8 0
153 4 5 0
153 4 7 0
153 4 8 0
153 5 7 0
153 5 8 0
153 6 7 0
153 7 8 0
16 -1 0
14 -2 0
16 -3 0
16 -4 0
15 -5 0
18 -6 0
16 -7 0
15 -8 0
